Route #1: 1 20 25 44 53 27 55 47 6 1
Route #2: 1 29 35 58 43 15 26 12 11 33 18 3 1
Route #3: 1 8 32 19 54 10 24 67 59 1
Route #4: 1 63 57 40 9 60 21 42 1
Route #5: 1 23 13 30 41 39 69 14 31 1
Route #6: 1 64 38 17 37 49 2 51 1
Route #7: 1 68 65 62 22 28 66 1
Route #8: 1 34 50 7 16 4 52 45 46 36 1
Route #9: 1 61 56 48 5 1
cost 1416.3391186793867